c instance by G2
c solution = 110010001010100
c Known solution cost is 914 
p cnf 15 30
w 56 40 78 33 42 65 47 74 67 57 75 78 52 54 96
-10 -5 -9 0
-13 3 -12 0
-7 -8 4 0
-5 2 9 0
-11 -5 1 0
9 -3 14 0
14 6 1 0
2 12 3 0
15 -5 11 0
-2 3 -12 0
8 -10 -9 0
-4 -1 -9 0
-5 -1 -8 0
12 3 11 0
2 3 6 0
-8 3 -6 0
15 -14 4 0
-15 7 12 0
-3 -11 12 0
4 14 -6 0
13 -11 7 0
-7 -2 3 0
-5 -13 -6 0
-12 -15 -6 0
1 -10 8 0
3 -8 -11 0
5 12 -1 0
-5 -10 15 0
-12 11 9 0
14 9 15 0
